c FILE /home/rafael/Documents/HappySet/MIHS/inputs/happygen/output/graph_scale_free_k7_p0.4_v50_20241127_082503.txt
c SOURCE This is a scale-free graph formed for the happy graph colouring problem.
c DESCRIPTION It was generated using the problem generator of Rhyd Lewis
c
c GRAPH STATS
c Seed                             = 122892831
c Number of Nodes                  = 50
c Number of colours k              = 7
c Number of pre-assignments        = 20
c Number of links per new node     = 5
c Density                          = 0.191837
c 
c The degrees of nodes 1 to 50, respectively, are as follows 
c [29, 25, 21, 20, 18, 18, 17, 15, 14, 14, 12, 11, 10, 10, 10, 10, 9, 9, 9, 8, 8, 8, 8, 8, 8, 7, 
c  7, 7, 6, 6, 6, 6, 6, 6, 6, 6, 6, 6, 5, 5, 5, 5, 5, 5, 5, 5, 5, 5, 5, 5] 
c  
p edge 50 235 7
e 1 2
e 1 3
e 1 5
e 1 6
e 1 7
e 1 8
e 1 9
e 1 11
e 1 12
e 1 13
e 1 17
e 1 21
e 1 22
e 1 24
e 1 25
e 1 28
e 1 29
e 1 31
e 1 32
e 1 35
e 1 36
e 1 37
e 1 39
e 1 40
e 1 41
e 1 44
e 1 46
e 1 48
e 1 50
e 2 3
e 2 4
e 2 5
e 2 6
e 2 7
e 2 8
e 2 9
e 2 10
e 2 11
e 2 13
e 2 17
e 2 19
e 2 20
e 2 23
e 2 26
e 2 28
e 2 29
e 2 31
e 2 38
e 2 42
e 2 43
e 2 44
e 2 45
e 2 50
e 3 4
e 3 5
e 3 6
e 3 7
e 3 11
e 3 12
e 3 15
e 3 16
e 3 20
e 3 21
e 3 24
e 3 25
e 3 28
e 3 29
e 3 32
e 3 34
e 3 39
e 3 46
e 3 49
e 4 5
e 4 6
e 4 7
e 4 8
e 4 9
e 4 13
e 4 17
e 4 20
e 4 21
e 4 24
e 4 25
e 4 26
e 4 34
e 4 37
e 4 38
e 4 45
e 4 46
e 4 49
e 5 6
e 5 7
e 5 8
e 5 9
e 5 13
e 5 14
e 5 20
e 5 22
e 5 26
e 5 27
e 5 39
e 5 42
e 5 45
e 5 47
e 6 7
e 6 8
e 6 13
e 6 15
e 6 17
e 6 21
e 6 22
e 6 27
e 6 28
e 6 29
e 6 30
e 6 36
e 6 40
e 7 10
e 7 11
e 7 14
e 7 15
e 7 18
e 7 22
e 7 27
e 7 33
e 7 34
e 7 45
e 7 49
e 8 9
e 8 10
e 8 14
e 8 16
e 8 17
e 8 19
e 8 26
e 8 27
e 8 35
e 8 38
e 9 14
e 9 15
e 9 19
e 9 21
e 9 24
e 9 26
e 9 33
e 9 42
e 9 50
e 10 11
e 10 16
e 10 17
e 10 18
e 10 23
e 10 25
e 10 30
e 10 34
e 10 42
e 10 43
e 10 44
e 11 21
e 11 23
e 11 25
e 11 27
e 11 30
e 11 40
e 11 44
e 12 15
e 12 16
e 12 20
e 12 22
e 12 31
e 12 36
e 12 41
e 12 46
e 12 50
e 13 18
e 13 20
e 13 40
e 13 41
e 13 47
e 14 20
e 14 30
e 14 31
e 14 32
e 14 33
e 14 39
e 15 17
e 15 18
e 15 29
e 15 36
e 15 37
e 16 23
e 16 24
e 16 26
e 16 35
e 16 40
e 16 45
e 17 30
e 17 33
e 18 22
e 18 31
e 18 33
e 18 41
e 18 47
e 19 20
e 19 21
e 19 36
e 19 37
e 19 38
e 19 48
e 21 32
e 22 26
e 22 28
e 23 29
e 23 34
e 23 41
e 23 49
e 24 42
e 24 43
e 24 44
e 25 35
e 25 43
e 25 47
e 27 43
e 27 48
e 28 47
e 28 48
e 30 32
e 31 39
e 32 35
e 33 50
e 34 49
e 35 37
e 36 48
e 37 38
e 38 46
n 3 2
n 9 1
n 13 1
n 18 1
n 22 1
n 29 2
n 30 6
n 31 1
n 33 1
n 34 2
n 35 3
n 36 4
n 37 3
n 40 1
n 41 1
n 43 5
n 45 7
n 46 2
n 47 1
n 48 4
